975,555
512,575
672,465
200,161
736,577
439,230
300,787
935,152
560,494
1155,481
452,721
281,610
1108,267
1066,345
453,480
736,235
694,380
760,-97
850,529
591,406
690,378
681,496
977,360
935,660
822,212
282,535
593,527
1045,670
368,305
616,-8
654,491
652,410
820,-21
